certificates/rado_a12_c200_N33.drat
-29 -30 -33 0
-19 -30 -33 0
-18 19 -31 -33 0
-30 -31 -33 0
19 -31 -33 0
d -18 19 -31 -33 0
18 -31 -33 0
-31 -32 -33 0
-18 30 -32 -33 0
30 -32 -33 0
d -18 30 -32 -33 0
18 -32 -33 0
-32 -33 0
d 30 -32 -33 0
-18 -33 0
18 32 0
d 16 18 32 0
-33 0
18 0
-2 0
16 0
-8 0
-32 0
-10 0
-24 0
-26 0
-17 0
13 0
21 0
29 0
28 0
6 0
4 0
12 0
14 0
20 0
30 0
22 0
0
